Minimize
        err

Subject To

scr1 - scr2 > 1
scr2 - scr3 > 1
scr3 - scr4 > 1
scr4 - scr5 > 1
scr5 - scr6 > 1

inf1 - inf2 > 1
inf2 - inf3 > 1

loc1 - loc2 > 1
loc2 - loc3 > 1
loc3 - loc4 > 1
loc4 - loc5 > 1
loc5 - loc6 > 1

freq1 - freq2 > 1
freq2 - freq3 > 1
